NAME : gr96.tsp
COMMENT : Optimal tour for gr96.tsp
TYPE : TOUR
DIMENSION : 96
Total Length: 536.5637003893786
TOUR_SECTION
1
30
31
32
36
37
38
35
34
29
2
3
4
5
6
8
7
9
10
12
13
14
15
16
17
20
18
19
21
22
26
28
27
23
24
25
54
58
60
61
62
63
64
68
67
66
65
96
94
95
93
92
78
85
86
88
89
90
87
84
74
75
77
76
73
72
71
59
56
57
69
70
82
81
83
91
80
79
39
40
41
42
43
49
50
52
51
55
53
48
47
46
45
44
33
11
-1
EOF
